25 40
1 2 4
1 6 5
2 3 4
2 7 5
3 4 5
3 8 3
4 5 5
4 9 5
5 10 3
6 7 1
6 11 4
7 8 3
7 12 1
8 9 4
8 13 4
9 10 1
9 14 3
10 15 3
11 12 5
11 16 3
12 13 1
12 17 4
13 14 5
13 18 5
14 15 2
14 19 5
15 20 1
16 17 2
16 21 5
17 18 1
17 22 2
18 19 5
18 23 1
19 20 3
19 24 5
20 25 3
21 22 5
22 23 1
23 24 5
24 25 3
